# Cost: 320

# Tail Head Net
61 31 1
91 61 1
121 91 1
151 121 1
181 151 1
182 181 1
302 1202 1
303 302 1
304 303 1
305 304 1
306 305 1
336 306 1
366 336 1
367 366 1
397 367 1
427 397 1
428 427 1
458 428 1
488 458 1
518 488 1
548 518 1
578 548 1
579 578 1
580 579 1
581 580 1
611 581 1
641 611 1
671 641 1
701 671 1
731 701 1
761 731 1
791 761 1
821 791 1
851 821 1
881 851 1
882 881 1
883 882 1
884 883 1
885 884 1
1082 182 1
1112 1082 1
1142 1112 1
1172 1142 1
1202 1172 1
90 120 2
120 150 2
150 180 2
180 210 2
210 240 2
240 270 2
242 241 2
243 242 2
244 243 2
245 244 2
246 245 2
247 246 2
248 247 2
249 248 2
250 249 2
251 250 2
252 251 2
253 252 2
254 253 2
255 254 2
256 255 2
257 256 2
258 257 2
259 258 2
260 259 2
261 260 2
262 261 2
263 262 2
264 263 2
265 264 2
266 265 2
267 266 2
268 267 2
269 268 2
270 269 2
270 300 2
300 330 2
330 360 2
360 390 2
390 420 2
420 450 2
450 480 2
480 510 2
14 15 3
15 16 3
16 17 3
17 18 3
18 19 3
19 20 3
20 21 3
21 22 3
22 23 3
23 24 3
24 25 3
43 44 3
44 14 3
73 43 3
102 103 3
103 73 3
129 130 3
130 131 3
131 132 3
132 102 3
159 129 3
189 159 3
396 1296 3
425 426 3
426 396 3
454 455 3
455 425 3
483 484 3
484 454 3
513 483 3
541 542 3
542 543 3
543 513 3
1087 1088 3
1088 1089 3
1089 189 3
1117 1087 3
1146 1147 3
1147 1117 3
1176 1146 3
1206 1176 3
1236 1206 3
1266 1236 3
1296 1266 3
570 540 4
600 570 4
630 600 4
660 630 4
690 660 4
720 690 4
750 720 4
780 750 4
798 828 4
799 798 4
800 799 4
801 800 4
802 801 4
803 802 4
804 803 4
805 804 4
806 805 4
807 806 4
808 807 4
809 808 4
810 780 4
810 809 4
827 857 4
828 827 4
857 887 4
34 4 5
64 34 5
94 64 5
124 94 5
154 124 5
184 154 5
572 571 5
573 572 5
574 573 5
574 1474 5
604 574 5
634 604 5
635 634 5
665 635 5
695 665 5
725 695 5
755 725 5
785 755 5
815 785 5
816 815 5
846 816 5
876 846 5
877 876 5
878 877 5
879 878 5
1084 184 5
1114 1084 5
1144 1114 5
1174 1144 5
1204 1174 5
1234 1204 5
1264 1234 5
1294 1264 5
1324 1294 5
1354 1324 5
1384 1354 5
1414 1384 5
1444 1414 5
1474 1444 5
37 7 6
55 56 6
56 26 6
631 1531 6
661 631 6
937 37 6
937 938 6
938 939 6
939 940 6
940 941 6
941 942 6
942 943 6
943 944 6
944 945 6
945 946 6
946 947 6
947 948 6
948 949 6
949 950 6
950 951 6
951 952 6
952 953 6
953 954 6
954 955 6
955 55 6
967 937 6
997 967 6
1027 997 6
1051 1052 6
1052 1053 6
1053 1054 6
1054 1055 6
1055 1056 6
1056 1057 6
1057 1027 6
1081 1051 6
1111 1081 6
1141 1111 6
1171 1141 6
1201 1171 6
1231 1201 6
1261 1231 6
1291 1261 6
1321 1291 6
1351 1321 6
1381 1351 6
1411 1381 6
1441 1411 6
1471 1441 6
1501 1471 6
1531 1501 6
3 33 7
33 63 7
63 93 7
93 123 7
123 153 7
153 183 7
183 213 7
212 211 7
213 212 7
301 271 8
331 301 8
361 331 8
391 361 8
2 902 9
27 28 9
28 29 9
902 903 9
903 904 9
904 905 9
905 906 9
906 907 9
907 908 9
908 909 9
909 910 9
910 911 9
911 912 9
912 913 9
913 914 9
914 915 9
915 916 9
916 917 9
917 918 9
918 919 9
919 920 9
920 921 9
921 922 9
922 923 9
923 924 9
924 925 9
925 926 9
926 927 9
927 27 9
841 1741 10
888 889 10
889 890 10
890 891 10
891 892 10
892 893 10
893 894 10
894 895 10
895 896 10
896 897 10
897 898 10
898 899 10
899 900 10
1741 1742 10
1742 1743 10
1743 1744 10
1744 1745 10
1745 1746 10
1746 1747 10
1747 1748 10
1748 1778 10
1778 1779 10
1779 1780 10
1780 1781 10
1781 1782 10
1782 1783 10
1783 1784 10
1784 1785 10
1785 1786 10
1786 1787 10
1787 1788 10
1788 888 10
